; benchmark generated from python API
(set-info :status unknown)
(declare-fun syscall_stub_newfstatat_83_64 () (_ BitVec 64))
(declare-fun mem_c0080014_89_32 () (_ BitVec 32))
(declare-fun mem_c0080018_88_32 () (_ BitVec 32))
(declare-fun mem_c0080024_86_32 () (_ BitVec 32))
(declare-fun mem_c0080020_87_32 () (_ BitVec 32))
(declare-fun mem_c0080010_84_32 () (_ BitVec 32))
(declare-fun mem_c0080008_85_32 () (_ BitVec 32))
(declare-fun mem_c0000f45_79_992 () (_ BitVec 992))
(declare-fun mem_fffffffffffffff0_163_128 () (_ BitVec 128))
(declare-fun mem_c0001010_98_32 () (_ BitVec 32))
(declare-fun mem_0_253_128 () (_ BitVec 128))
(declare-fun mem_10_297_128 () (_ BitVec 128))
(declare-fun mem_20_351_128 () (_ BitVec 128))
(assert
 (let ((?x47 ((_ extract 31 0) syscall_stub_newfstatat_83_64)))
 (bvule ?x47 (_ bv4294963200 32))))
(assert
 (let ((?x123 (bvadd mem_c0080018_88_32 mem_c0080014_89_32)))
 (let ((?x129 (concat (_ bv0 32) ?x123)))
 (let ((?x3465604 (concat (concat (_ bv0 26) mem_c0080024_86_32) (_ bv0 1))))
 (let ((?x201 (concat (_ bv0 27) mem_c0080024_86_32)))
 (let ((?x3466476 (bvadd ?x201 ?x3465604)))
 (let ((?x2820984 (concat ?x3466476 (_ bv0 3))))
 (let ((?x3390313 (concat (concat (_ bv0 29) mem_c0080024_86_32) (_ bv0 1))))
 (let ((?x190 (concat (_ bv0 30) mem_c0080024_86_32)))
 (let ((?x3466412 (bvadd (bvadd ?x190 ?x3390313) ?x2820984)))
 (let ((?x3464998 (concat ?x3466412 (_ bv0 2))))
 (let ((?x168 (concat (_ bv0 32) mem_c0080020_87_32)))
 (let ((?x2822417 (bvadd ?x168 ?x3464998)))
 (let ((?x3461354 (concat (concat (_ bv0 29) mem_c0080010_84_32) (_ bv0 1))))
 (let ((?x161 (concat (_ bv0 30) mem_c0080010_84_32)))
 (let ((?x3462866 (bvadd ?x161 ?x3461354)))
 (let ((?x3464565 (concat ?x3462866 (_ bv0 2))))
 (let ((?x143 (concat (_ bv0 32) mem_c0080008_85_32)))
 (let ((?x3465119 (bvadd ?x143 ?x3464565)))
 (let (($x3465086 (bvsle ?x2822417 ?x3465119)))
 (let ((?x3465067 (ite $x3465086 ?x3465119 ?x2822417)))
 (let (($x3465958 (bvsle ?x129 ?x3465067)))
 (let ((?x2545777 (ite $x3465958 ?x3465067 ?x129)))
 (let (($x3461414 (= (_ bv0 64) ?x2545777)))
 (not $x3461414)))))))))))))))))))))))))
(assert
 (let ((?x2374 ((_ extract 839 832) mem_c0000f45_79_992)))
 (let ((?x11156 (concat (_ bv72057594037927935 56) ?x2374)))
 (let ((?x11157 (bvmul (_ bv18446744073709551615 64) ?x11156)))
 (let ((?x2427 ((_ extract 775 768) mem_c0000f45_79_992)))
 (let ((?x2419 ((_ extract 767 760) mem_c0000f45_79_992)))
 (let ((?x2429 ((_ extract 759 752) mem_c0000f45_79_992)))
 (let ((?x2417 ((_ extract 751 744) mem_c0000f45_79_992)))
 (let ((?x2410 ((_ extract 743 736) mem_c0000f45_79_992)))
 (let ((?x2411 ((_ extract 735 728) mem_c0000f45_79_992)))
 (let ((?x4124 (concat (concat ((_ extract 719 712) mem_c0000f45_79_992) ((_ extract 727 720) mem_c0000f45_79_992)) ?x2411)))
 (let ((?x4642 (concat ?x4124 ?x2410)))
 (let ((?x3823 (concat (concat (concat (concat ?x4642 ?x2417) ?x2429) ?x2419) ?x2427)))
 (let ((?x17565 (bvadd ?x3823 ?x11157)))
 (let ((?x17657 ((_ extract 63 63) ?x17565)))
 (let (($x17606 (= (_ bv1 1) ?x17657)))
 (not $x17606)))))))))))))))))
(assert
 (let ((?x2189 ((_ extract 900 900) mem_c0000f45_79_992)))
 (= (_ bv0 1) ?x2189)))
(assert
 (let ((?x4996 ((_ extract 837 832) mem_c0000f45_79_992)))
 (let (($x3467 (bvule ?x4996 (_ bv48 6))))
 (not $x3467))))
(assert
 (let ((?x6435 ((_ extract 839 836) mem_c0000f45_79_992)))
 (= (_ bv15 4) ?x6435)))
(assert
 (let ((?x6423 ((_ extract 835 832) mem_c0000f45_79_992)))
 (let ((?x6432 (concat (_ bv0 60) ?x6423)))
 (let ((?x76531 ((_ extract 7 0) mem_fffffffffffffff0_163_128)))
 (let (($x72760 (= (_ bv10 8) ?x76531)))
 (let ((?x58929 (ite $x72760 (_ bv1 1) (_ bv0 1))))
 (let ((?x70843 ((_ extract 15 8) mem_fffffffffffffff0_163_128)))
 (let (($x75953 (= (_ bv10 8) ?x70843)))
 (let ((?x59309 (ite $x75953 (_ bv1 1) (_ bv0 1))))
 (let ((?x58597 ((_ extract 23 16) mem_fffffffffffffff0_163_128)))
 (let (($x58964 (= (_ bv10 8) ?x58597)))
 (let ((?x64498 (ite $x58964 (_ bv1 1) (_ bv0 1))))
 (let ((?x58690 ((_ extract 31 24) mem_fffffffffffffff0_163_128)))
 (let (($x76776 (= (_ bv10 8) ?x58690)))
 (let ((?x59133 (ite $x76776 (_ bv1 1) (_ bv0 1))))
 (let ((?x77640 ((_ extract 39 32) mem_fffffffffffffff0_163_128)))
 (let (($x63433 (= (_ bv10 8) ?x77640)))
 (let ((?x63532 (ite $x63433 (_ bv1 1) (_ bv0 1))))
 (let ((?x62490 ((_ extract 47 40) mem_fffffffffffffff0_163_128)))
 (let (($x59208 (= (_ bv10 8) ?x62490)))
 (let ((?x63837 (ite $x59208 (_ bv1 1) (_ bv0 1))))
 (let ((?x76579 ((_ extract 55 48) mem_fffffffffffffff0_163_128)))
 (let (($x62873 (= (_ bv10 8) ?x76579)))
 (let ((?x59239 (ite $x62873 (_ bv1 1) (_ bv0 1))))
 (let ((?x57987 ((_ extract 63 56) mem_fffffffffffffff0_163_128)))
 (let (($x58712 (= (_ bv10 8) ?x57987)))
 (let ((?x62759 (ite $x58712 (_ bv1 1) (_ bv0 1))))
 (let ((?x77319 ((_ extract 71 64) mem_fffffffffffffff0_163_128)))
 (let (($x59058 (= (_ bv10 8) ?x77319)))
 (let ((?x71846 (ite $x59058 (_ bv1 1) (_ bv0 1))))
 (let ((?x63697 ((_ extract 79 72) mem_fffffffffffffff0_163_128)))
 (let (($x58146 (= (_ bv10 8) ?x63697)))
 (let ((?x57735 (ite $x58146 (_ bv1 1) (_ bv0 1))))
 (let ((?x63795 ((_ extract 87 80) mem_fffffffffffffff0_163_128)))
 (let (($x76994 (= (_ bv10 8) ?x63795)))
 (let ((?x64401 (ite $x76994 (_ bv1 1) (_ bv0 1))))
 (let ((?x71702 ((_ extract 95 88) mem_fffffffffffffff0_163_128)))
 (let (($x58127 (= (_ bv10 8) ?x71702)))
 (let ((?x58365 (ite $x58127 (_ bv1 1) (_ bv0 1))))
 (let ((?x58654 ((_ extract 103 96) mem_fffffffffffffff0_163_128)))
 (let (($x58383 (= (_ bv10 8) ?x58654)))
 (let ((?x63176 (ite $x58383 (_ bv1 1) (_ bv0 1))))
 (let ((?x71285 ((_ extract 111 104) mem_fffffffffffffff0_163_128)))
 (let (($x63962 (= (_ bv10 8) ?x71285)))
 (let ((?x63039 (ite $x63962 (_ bv1 1) (_ bv0 1))))
 (let ((?x58576 ((_ extract 119 112) mem_fffffffffffffff0_163_128)))
 (let (($x64005 (= (_ bv10 8) ?x58576)))
 (let ((?x71714 (ite $x64005 (_ bv1 1) (_ bv0 1))))
 (let ((?x63827 ((_ extract 127 120) mem_fffffffffffffff0_163_128)))
 (let (($x62607 (= (_ bv10 8) ?x63827)))
 (let ((?x70538 (ite $x62607 (_ bv1 1) (_ bv0 1))))
 (let ((?x64858 (concat (concat (concat (concat (concat (_ bv0 48) ?x70538) ?x71714) ?x63039) ?x63176) ?x58365)))
 (let ((?x61977 (concat (concat (concat (concat (concat ?x64858 ?x64401) ?x57735) ?x71846) ?x62759) ?x59239)))
 (let ((?x68508 (concat (concat (concat (concat (concat ?x61977 ?x63837) ?x63532) ?x59133) ?x64498) ?x59309)))
 (let ((?x57475 (concat ?x68508 ?x58929)))
 (let ((?x61781 (bvashr ?x57475 ?x6432)))
 (let ((?x61434 ((_ extract 31 0) ?x61781)))
 (= (_ bv0 32) ?x61434))))))))))))))))))))))))))))))))))))))))))))))))))))))))))
(assert
 (let ((?x6423 ((_ extract 835 832) mem_c0000f45_79_992)))
 (let ((?x6432 (concat (_ bv0 60) ?x6423)))
 (let ((?x10865 (bvmul (_ bv18446744073709551615 64) ?x6432)))
 (let ((?x10876 (bvadd (_ bv16 64) ?x10865)))
 (let ((?x2374 ((_ extract 839 832) mem_c0000f45_79_992)))
 (let ((?x11156 (concat (_ bv72057594037927935 56) ?x2374)))
 (let ((?x11157 (bvmul (_ bv18446744073709551615 64) ?x11156)))
 (let ((?x2427 ((_ extract 775 768) mem_c0000f45_79_992)))
 (let ((?x2419 ((_ extract 767 760) mem_c0000f45_79_992)))
 (let ((?x2429 ((_ extract 759 752) mem_c0000f45_79_992)))
 (let ((?x2417 ((_ extract 751 744) mem_c0000f45_79_992)))
 (let ((?x2410 ((_ extract 743 736) mem_c0000f45_79_992)))
 (let ((?x2411 ((_ extract 735 728) mem_c0000f45_79_992)))
 (let ((?x4124 (concat (concat ((_ extract 719 712) mem_c0000f45_79_992) ((_ extract 727 720) mem_c0000f45_79_992)) ?x2411)))
 (let ((?x4642 (concat ?x4124 ?x2410)))
 (let ((?x3823 (concat (concat (concat (concat ?x4642 ?x2417) ?x2429) ?x2419) ?x2427)))
 (let ((?x17565 (bvadd ?x3823 ?x11157)))
 (let ((?x3615 ((_ extract 824 824) mem_c0000f45_79_992)))
 (let ((?x3589 (concat ?x3615 ?x2374)))
 (let ((?x4638 (bvmul (_ bv511 9) ?x3589)))
 (let ((?x4203 ((_ extract 760 760) mem_c0000f45_79_992)))
 (let ((?x3607 (concat ?x4203 ?x2427)))
 (let ((?x3785 (bvadd ?x3607 ?x4638)))
 (let (($x4511 (bvule ?x3785 (_ bv399 9))))
 (let ((?x17607 ((_ extract 63 9) ?x17565)))
 (let (($x17611 (= (_ bv0 55) ?x17607)))
 (let (($x17584 (and $x17611 $x4511)))
 (let ((?x17711 (ite $x17584 ?x17565 (_ bv399 64))))
 (let (($x17615 (bvule ?x17711 ?x10876)))
 (not $x17615)))))))))))))))))))))))))))))))
(assert
 (let ((?x6423 ((_ extract 835 832) mem_c0000f45_79_992)))
 (let ((?x10887 (concat (_ bv1152921504606846975 60) ?x6423)))
 (let ((?x2374 ((_ extract 839 832) mem_c0000f45_79_992)))
 (let ((?x11156 (concat (_ bv72057594037927935 56) ?x2374)))
 (let ((?x11157 (bvmul (_ bv18446744073709551615 64) ?x11156)))
 (let ((?x2427 ((_ extract 775 768) mem_c0000f45_79_992)))
 (let ((?x2419 ((_ extract 767 760) mem_c0000f45_79_992)))
 (let ((?x2429 ((_ extract 759 752) mem_c0000f45_79_992)))
 (let ((?x2417 ((_ extract 751 744) mem_c0000f45_79_992)))
 (let ((?x2410 ((_ extract 743 736) mem_c0000f45_79_992)))
 (let ((?x2411 ((_ extract 735 728) mem_c0000f45_79_992)))
 (let ((?x4124 (concat (concat ((_ extract 719 712) mem_c0000f45_79_992) ((_ extract 727 720) mem_c0000f45_79_992)) ?x2411)))
 (let ((?x4642 (concat ?x4124 ?x2410)))
 (let ((?x3823 (concat (concat (concat (concat ?x4642 ?x2417) ?x2429) ?x2419) ?x2427)))
 (let ((?x17565 (bvadd ?x3823 ?x11157)))
 (let ((?x3615 ((_ extract 824 824) mem_c0000f45_79_992)))
 (let ((?x3589 (concat ?x3615 ?x2374)))
 (let ((?x4638 (bvmul (_ bv511 9) ?x3589)))
 (let ((?x4203 ((_ extract 760 760) mem_c0000f45_79_992)))
 (let ((?x3607 (concat ?x4203 ?x2427)))
 (let ((?x3785 (bvadd ?x3607 ?x4638)))
 (let (($x4511 (bvule ?x3785 (_ bv399 9))))
 (let ((?x17607 ((_ extract 63 9) ?x17565)))
 (let (($x17611 (= (_ bv0 55) ?x17607)))
 (let (($x17584 (and $x17611 $x4511)))
 (let ((?x17711 (ite $x17584 ?x17565 (_ bv399 64))))
 (let ((?x17597 (bvadd ?x17711 ?x10887)))
 (let ((?x17570 ((_ extract 63 7) ?x17597)))
 (= (_ bv0 57) ?x17570))))))))))))))))))))))))))))))
(assert
 (let ((?x6423 ((_ extract 835 832) mem_c0000f45_79_992)))
 (let ((?x16888 (concat (_ bv268435455 28) ?x6423)))
 (let ((?x2374 ((_ extract 839 832) mem_c0000f45_79_992)))
 (let ((?x13019 (concat (_ bv16777215 24) ?x2374)))
 (let ((?x12062 (bvmul (_ bv4294967295 32) ?x13019)))
 (let ((?x2427 ((_ extract 775 768) mem_c0000f45_79_992)))
 (let ((?x2419 ((_ extract 767 760) mem_c0000f45_79_992)))
 (let ((?x21977 (concat (concat ((_ extract 751 744) mem_c0000f45_79_992) ((_ extract 759 752) mem_c0000f45_79_992)) ?x2419)))
 (let ((?x22501 (concat ?x21977 ?x2427)))
 (let ((?x15826 (bvadd ?x22501 ?x12062)))
 (let ((?x3615 ((_ extract 824 824) mem_c0000f45_79_992)))
 (let ((?x3589 (concat ?x3615 ?x2374)))
 (let ((?x4638 (bvmul (_ bv511 9) ?x3589)))
 (let ((?x4203 ((_ extract 760 760) mem_c0000f45_79_992)))
 (let ((?x3607 (concat ?x4203 ?x2427)))
 (let ((?x3785 (bvadd ?x3607 ?x4638)))
 (let (($x4511 (bvule ?x3785 (_ bv399 9))))
 (let ((?x11156 (concat (_ bv72057594037927935 56) ?x2374)))
 (let ((?x11157 (bvmul (_ bv18446744073709551615 64) ?x11156)))
 (let ((?x2429 ((_ extract 759 752) mem_c0000f45_79_992)))
 (let ((?x2417 ((_ extract 751 744) mem_c0000f45_79_992)))
 (let ((?x2410 ((_ extract 743 736) mem_c0000f45_79_992)))
 (let ((?x2411 ((_ extract 735 728) mem_c0000f45_79_992)))
 (let ((?x4124 (concat (concat ((_ extract 719 712) mem_c0000f45_79_992) ((_ extract 727 720) mem_c0000f45_79_992)) ?x2411)))
 (let ((?x4642 (concat ?x4124 ?x2410)))
 (let ((?x3823 (concat (concat (concat (concat ?x4642 ?x2417) ?x2429) ?x2419) ?x2427)))
 (let ((?x17565 (bvadd ?x3823 ?x11157)))
 (let ((?x17607 ((_ extract 63 9) ?x17565)))
 (let (($x17611 (= (_ bv0 55) ?x17607)))
 (let (($x17584 (and $x17611 $x4511)))
 (let ((?x15819 (ite $x17584 ?x15826 (_ bv399 32))))
 (let ((?x15770 (bvadd (bvadd (_ bv4294967264 32) ?x15819) ?x16888)))
 (let ((?x15648 ((_ extract 31 31) ?x15770)))
 (let ((?x10887 (concat (_ bv1152921504606846975 60) ?x6423)))
 (let ((?x15268 (bvadd (bvadd (_ bv18446744073709551552 64) (ite $x17584 ?x17565 (_ bv399 64))) ?x10887)))
 (let ((?x15576 ((_ extract 31 31) ?x15268)))
 (let (($x15341 (= ?x15576 ?x15648)))
 (let (($x15672 (= (_ bv1 1) ?x15576)))
 (let (($x15917 (or $x15672 $x15341)))
 (let ((?x15910 (ite $x15917 (_ bv1 1) (_ bv0 1))))
 (let (($x15945 (= ?x15648 ?x15910)))
 (not $x15945)))))))))))))))))))))))))))))))))))))))))))
(assert
 (let ((?x2364 ((_ extract 831 824) mem_c0000f45_79_992)))
 (= (_ bv255 8) ?x2364)))
(assert
 (let ((?x2349 ((_ extract 823 816) mem_c0000f45_79_992)))
 (= (_ bv255 8) ?x2349)))
(assert
 (let ((?x2357 ((_ extract 815 808) mem_c0000f45_79_992)))
 (= (_ bv255 8) ?x2357)))
(assert
 (let ((?x2362 ((_ extract 807 800) mem_c0000f45_79_992)))
 (= (_ bv255 8) ?x2362)))
(assert
 (let ((?x2363 ((_ extract 799 792) mem_c0000f45_79_992)))
 (= (_ bv255 8) ?x2363)))
(assert
 (let ((?x2346 ((_ extract 791 784) mem_c0000f45_79_992)))
 (= (_ bv255 8) ?x2346)))
(assert
 (let ((?x2345 ((_ extract 783 776) mem_c0000f45_79_992)))
 (= (_ bv255 8) ?x2345)))
(assert
 (let ((?x6423 ((_ extract 835 832) mem_c0000f45_79_992)))
 (let ((?x14178 (concat (_ bv7 3) ?x6423)))
 (let ((?x14167 ((_ extract 838 832) mem_c0000f45_79_992)))
 (let ((?x14394 (bvmul (_ bv127 7) ?x14167)))
 (let ((?x13987 ((_ extract 774 768) mem_c0000f45_79_992)))
 (let ((?x14007 (bvadd ?x13987 ?x14394)))
 (let ((?x2374 ((_ extract 839 832) mem_c0000f45_79_992)))
 (let ((?x3615 ((_ extract 824 824) mem_c0000f45_79_992)))
 (let ((?x3589 (concat ?x3615 ?x2374)))
 (let ((?x4638 (bvmul (_ bv511 9) ?x3589)))
 (let ((?x2427 ((_ extract 775 768) mem_c0000f45_79_992)))
 (let ((?x4203 ((_ extract 760 760) mem_c0000f45_79_992)))
 (let ((?x3607 (concat ?x4203 ?x2427)))
 (let ((?x3785 (bvadd ?x3607 ?x4638)))
 (let (($x4511 (bvule ?x3785 (_ bv399 9))))
 (let ((?x11156 (concat (_ bv72057594037927935 56) ?x2374)))
 (let ((?x11157 (bvmul (_ bv18446744073709551615 64) ?x11156)))
 (let ((?x2419 ((_ extract 767 760) mem_c0000f45_79_992)))
 (let ((?x2429 ((_ extract 759 752) mem_c0000f45_79_992)))
 (let ((?x2417 ((_ extract 751 744) mem_c0000f45_79_992)))
 (let ((?x2410 ((_ extract 743 736) mem_c0000f45_79_992)))
 (let ((?x2411 ((_ extract 735 728) mem_c0000f45_79_992)))
 (let ((?x4124 (concat (concat ((_ extract 719 712) mem_c0000f45_79_992) ((_ extract 727 720) mem_c0000f45_79_992)) ?x2411)))
 (let ((?x4642 (concat ?x4124 ?x2410)))
 (let ((?x3823 (concat (concat (concat (concat ?x4642 ?x2417) ?x2429) ?x2419) ?x2427)))
 (let ((?x17565 (bvadd ?x3823 ?x11157)))
 (let ((?x17607 ((_ extract 63 9) ?x17565)))
 (let (($x17611 (= (_ bv0 55) ?x17607)))
 (let (($x17584 (and $x17611 $x4511)))
 (let ((?x17612 (ite $x17584 ?x14007 (_ bv15 7))))
 (let ((?x17567 (bvadd ?x17612 ?x14178)))
 (bvule ?x17567 (_ bv64 7))))))))))))))))))))))))))))))))))
(assert
 (let ((?x6423 ((_ extract 835 832) mem_c0000f45_79_992)))
 (let ((?x16888 (concat (_ bv268435455 28) ?x6423)))
 (let ((?x15474 (bvmul (_ bv4294967295 32) ?x16888)))
 (let ((?x15679 (bvadd (_ bv32 32) ?x15474)))
 (let ((?x2374 ((_ extract 839 832) mem_c0000f45_79_992)))
 (let ((?x13019 (concat (_ bv16777215 24) ?x2374)))
 (let ((?x12062 (bvmul (_ bv4294967295 32) ?x13019)))
 (let ((?x2427 ((_ extract 775 768) mem_c0000f45_79_992)))
 (let ((?x2419 ((_ extract 767 760) mem_c0000f45_79_992)))
 (let ((?x21977 (concat (concat ((_ extract 751 744) mem_c0000f45_79_992) ((_ extract 759 752) mem_c0000f45_79_992)) ?x2419)))
 (let ((?x22501 (concat ?x21977 ?x2427)))
 (let ((?x15826 (bvadd ?x22501 ?x12062)))
 (let ((?x3615 ((_ extract 824 824) mem_c0000f45_79_992)))
 (let ((?x3589 (concat ?x3615 ?x2374)))
 (let ((?x4638 (bvmul (_ bv511 9) ?x3589)))
 (let ((?x4203 ((_ extract 760 760) mem_c0000f45_79_992)))
 (let ((?x3607 (concat ?x4203 ?x2427)))
 (let ((?x3785 (bvadd ?x3607 ?x4638)))
 (let (($x4511 (bvule ?x3785 (_ bv399 9))))
 (let ((?x11156 (concat (_ bv72057594037927935 56) ?x2374)))
 (let ((?x11157 (bvmul (_ bv18446744073709551615 64) ?x11156)))
 (let ((?x2429 ((_ extract 759 752) mem_c0000f45_79_992)))
 (let ((?x2417 ((_ extract 751 744) mem_c0000f45_79_992)))
 (let ((?x2410 ((_ extract 743 736) mem_c0000f45_79_992)))
 (let ((?x2411 ((_ extract 735 728) mem_c0000f45_79_992)))
 (let ((?x4124 (concat (concat ((_ extract 719 712) mem_c0000f45_79_992) ((_ extract 727 720) mem_c0000f45_79_992)) ?x2411)))
 (let ((?x4642 (concat ?x4124 ?x2410)))
 (let ((?x3823 (concat (concat (concat (concat ?x4642 ?x2417) ?x2429) ?x2419) ?x2427)))
 (let ((?x17565 (bvadd ?x3823 ?x11157)))
 (let ((?x17607 ((_ extract 63 9) ?x17565)))
 (let (($x17611 (= (_ bv0 55) ?x17607)))
 (let (($x17584 (and $x17611 $x4511)))
 (let ((?x15819 (ite $x17584 ?x15826 (_ bv399 32))))
 (let (($x15763 (= ?x15819 ?x15679)))
 (not $x15763))))))))))))))))))))))))))))))))))))
(assert
 (let ((?x2400 ((_ extract 719 712) mem_c0000f45_79_992)))
 (let (($x17560 (= (_ bv255 8) ?x2400)))
 (let (($x17562 (not $x17560)))
 (let ((?x2374 ((_ extract 839 832) mem_c0000f45_79_992)))
 (let ((?x2427 ((_ extract 775 768) mem_c0000f45_79_992)))
 (let (($x1152 (= ?x2427 ?x2374)))
 (let (($x4139 (not $x1152)))
 (let ((?x2411 ((_ extract 735 728) mem_c0000f45_79_992)))
 (let (($x17604 (= (_ bv255 8) ?x2411)))
 (let (($x17721 (not $x17604)))
 (let ((?x2401 ((_ extract 727 720) mem_c0000f45_79_992)))
 (let (($x17731 (= (_ bv255 8) ?x2401)))
 (let (($x17664 (not $x17731)))
 (let ((?x2417 ((_ extract 751 744) mem_c0000f45_79_992)))
 (let (($x17650 (= (_ bv255 8) ?x2417)))
 (let (($x17555 (not $x17650)))
 (let ((?x2410 ((_ extract 743 736) mem_c0000f45_79_992)))
 (let (($x17595 (= (_ bv255 8) ?x2410)))
 (let (($x17616 (not $x17595)))
 (let ((?x2419 ((_ extract 767 760) mem_c0000f45_79_992)))
 (let (($x17574 (= (_ bv255 8) ?x2419)))
 (let (($x17598 (not $x17574)))
 (let ((?x2429 ((_ extract 759 752) mem_c0000f45_79_992)))
 (let (($x17591 (= (_ bv255 8) ?x2429)))
 (let (($x17582 (not $x17591)))
 (or $x17582 $x17598 $x17616 $x17555 $x17664 $x17721 $x4139 $x17562)))))))))))))))))))))))))))
(assert
 (let (($x2293 (= (_ bv0 32) mem_c0001010_98_32)))
 (not $x2293)))
(assert
 (let ((?x198526 ((_ extract 15 8) mem_0_253_128)))
 (let (($x208396 (= (_ bv10 8) ?x198526)))
 (not $x208396))))
(assert
 (let ((?x208205 ((_ extract 7 0) mem_0_253_128)))
 (let (($x207606 (= (_ bv10 8) ?x208205)))
 (not $x207606))))
(assert
 (let ((?x133163 ((_ extract 23 16) mem_0_253_128)))
 (let (($x206120 (= (_ bv10 8) ?x133163)))
 (not $x206120))))
(assert
 (let ((?x206209 ((_ extract 31 24) mem_0_253_128)))
 (let (($x206660 (= (_ bv10 8) ?x206209)))
 (not $x206660))))
(assert
 (let ((?x127259 ((_ extract 39 32) mem_0_253_128)))
 (let (($x199453 (= (_ bv10 8) ?x127259)))
 (not $x199453))))
(assert
 (let ((?x206401 ((_ extract 47 40) mem_0_253_128)))
 (let (($x207041 (= (_ bv10 8) ?x206401)))
 (not $x207041))))
(assert
 (let ((?x201123 ((_ extract 55 48) mem_0_253_128)))
 (let (($x127117 (= (_ bv10 8) ?x201123)))
 (not $x127117))))
(assert
 (let ((?x208077 ((_ extract 63 56) mem_0_253_128)))
 (let (($x207020 (= (_ bv10 8) ?x208077)))
 (not $x207020))))
(assert
 (let ((?x209047 ((_ extract 71 64) mem_0_253_128)))
 (let (($x207191 (= (_ bv10 8) ?x209047)))
 (not $x207191))))
(assert
 (let ((?x200682 ((_ extract 79 72) mem_0_253_128)))
 (let (($x208879 (= (_ bv10 8) ?x200682)))
 (not $x208879))))
(assert
 (let ((?x195467 ((_ extract 87 80) mem_0_253_128)))
 (let (($x208971 (= (_ bv10 8) ?x195467)))
 (not $x208971))))
(assert
 (let ((?x205430 ((_ extract 95 88) mem_0_253_128)))
 (let (($x208989 (= (_ bv10 8) ?x205430)))
 (not $x208989))))
(assert
 (let ((?x208289 ((_ extract 103 96) mem_0_253_128)))
 (let (($x207572 (= (_ bv10 8) ?x208289)))
 (not $x207572))))
(assert
 (let ((?x208730 ((_ extract 111 104) mem_0_253_128)))
 (let (($x209419 (= (_ bv10 8) ?x208730)))
 (not $x209419))))
(assert
 (let ((?x207326 ((_ extract 119 112) mem_0_253_128)))
 (let (($x209045 (= (_ bv10 8) ?x207326)))
 (not $x209045))))
(assert
 (let ((?x206259 ((_ extract 127 120) mem_0_253_128)))
 (let (($x207722 (= (_ bv10 8) ?x206259)))
 (not $x207722))))
(assert
 (let ((?x436274 ((_ extract 15 8) mem_10_297_128)))
 (let (($x120638 (= (_ bv10 8) ?x436274)))
 (not $x120638))))
(assert
 (let ((?x395903 ((_ extract 7 0) mem_10_297_128)))
 (let (($x440641 (= (_ bv10 8) ?x395903)))
 (not $x440641))))
(assert
 (let ((?x438508 ((_ extract 23 16) mem_10_297_128)))
 (let (($x437886 (= (_ bv10 8) ?x438508)))
 (not $x437886))))
(assert
 (let ((?x380401 ((_ extract 31 24) mem_10_297_128)))
 (let (($x124961 (= (_ bv10 8) ?x380401)))
 (not $x124961))))
(assert
 (let ((?x437359 ((_ extract 39 32) mem_10_297_128)))
 (let (($x437362 (= (_ bv10 8) ?x437359)))
 (not $x437362))))
(assert
 (let ((?x438926 ((_ extract 47 40) mem_10_297_128)))
 (let (($x437360 (= (_ bv10 8) ?x438926)))
 (not $x437360))))
(assert
 (let ((?x438925 ((_ extract 55 48) mem_10_297_128)))
 (let (($x437444 (= (_ bv10 8) ?x438925)))
 (not $x437444))))
(assert
 (let ((?x438907 ((_ extract 63 56) mem_10_297_128)))
 (let (($x399255 (= (_ bv10 8) ?x438907)))
 (not $x399255))))
(assert
 (let ((?x437351 ((_ extract 71 64) mem_10_297_128)))
 (let (($x438427 (= (_ bv10 8) ?x437351)))
 (not $x438427))))
(assert
 (let ((?x437361 ((_ extract 79 72) mem_10_297_128)))
 (let (($x398816 (= (_ bv10 8) ?x437361)))
 (not $x398816))))
(assert
 (let ((?x437518 ((_ extract 87 80) mem_10_297_128)))
 (let (($x437732 (= (_ bv10 8) ?x437518)))
 (not $x437732))))
(assert
 (let ((?x438459 ((_ extract 95 88) mem_10_297_128)))
 (let (($x438060 (= (_ bv10 8) ?x438459)))
 (not $x438060))))
(assert
 (let ((?x438061 ((_ extract 103 96) mem_10_297_128)))
 (let (($x401244 (= (_ bv10 8) ?x438061)))
 (not $x401244))))
(assert
 (let ((?x438046 ((_ extract 111 104) mem_10_297_128)))
 (let (($x438059 (= (_ bv10 8) ?x438046)))
 (not $x438059))))
(assert
 (let ((?x437368 ((_ extract 119 112) mem_10_297_128)))
 (let (($x437356 (= (_ bv10 8) ?x437368)))
 (not $x437356))))
(assert
 (let ((?x438947 ((_ extract 127 120) mem_10_297_128)))
 (let (($x399206 (= (_ bv10 8) ?x438947)))
 (not $x399206))))
(assert
 (let ((?x6435 ((_ extract 839 836) mem_c0000f45_79_992)))
 (let ((?x2364 ((_ extract 831 824) mem_c0000f45_79_992)))
 (let ((?x2349 ((_ extract 823 816) mem_c0000f45_79_992)))
 (let ((?x2357 ((_ extract 815 808) mem_c0000f45_79_992)))
 (let ((?x2362 ((_ extract 807 800) mem_c0000f45_79_992)))
 (let ((?x2363 ((_ extract 799 792) mem_c0000f45_79_992)))
 (let ((?x593 (concat (concat ((_ extract 783 776) mem_c0000f45_79_992) ((_ extract 791 784) mem_c0000f45_79_992)) ?x2363)))
 (let ((?x4215 (concat (concat (concat (concat ?x593 ?x2362) ?x2357) ?x2349) ?x2364)))
 (let ((?x14202 (concat (concat ?x4215 ?x6435) (_ bv0 4))))
 (let ((?x28164 (bvadd ?x14202 (_ bv48 64))))
 (= (_ bv32 64) ?x28164))))))))))))
(assert
 (let ((?x663856 ((_ extract 7 0) mem_20_351_128)))
 (let (($x387683 (= (_ bv10 8) ?x663856)))
 (let ((?x380476 (ite $x387683 (_ bv1 1) (_ bv0 1))))
 (let ((?x664026 ((_ extract 15 8) mem_20_351_128)))
 (let (($x663463 (= (_ bv10 8) ?x664026)))
 (let ((?x396326 (ite $x663463 (_ bv1 1) (_ bv0 1))))
 (let ((?x664023 ((_ extract 23 16) mem_20_351_128)))
 (let (($x663808 (= (_ bv10 8) ?x664023)))
 (let ((?x393086 (ite $x663808 (_ bv1 1) (_ bv0 1))))
 (let ((?x662982 ((_ extract 31 24) mem_20_351_128)))
 (let (($x663487 (= (_ bv10 8) ?x662982)))
 (let ((?x397079 (ite $x663487 (_ bv1 1) (_ bv0 1))))
 (let ((?x663512 ((_ extract 39 32) mem_20_351_128)))
 (let (($x663515 (= (_ bv10 8) ?x663512)))
 (let ((?x387134 (ite $x663515 (_ bv1 1) (_ bv0 1))))
 (let ((?x659653 ((_ extract 47 40) mem_20_351_128)))
 (let (($x663510 (= (_ bv10 8) ?x659653)))
 (let ((?x195446 (ite $x663510 (_ bv1 1) (_ bv0 1))))
 (let ((?x664634 ((_ extract 55 48) mem_20_351_128)))
 (let (($x662902 (= (_ bv10 8) ?x664634)))
 (let ((?x379251 (ite $x662902 (_ bv1 1) (_ bv0 1))))
 (let ((?x663511 ((_ extract 63 56) mem_20_351_128)))
 (let (($x663806 (= (_ bv10 8) ?x663511)))
 (let ((?x395530 (ite $x663806 (_ bv1 1) (_ bv0 1))))
 (let ((?x651001 ((_ extract 71 64) mem_20_351_128)))
 (let (($x389000 (= (_ bv10 8) ?x651001)))
 (let ((?x395808 (ite $x389000 (_ bv1 1) (_ bv0 1))))
 (let ((?x649517 ((_ extract 79 72) mem_20_351_128)))
 (let (($x663854 (= (_ bv10 8) ?x649517)))
 (let ((?x389297 (ite $x663854 (_ bv1 1) (_ bv0 1))))
 (let ((?x659809 ((_ extract 87 80) mem_20_351_128)))
 (let (($x386649 (= (_ bv10 8) ?x659809)))
 (let ((?x392673 (ite $x386649 (_ bv1 1) (_ bv0 1))))
 (let ((?x656194 ((_ extract 95 88) mem_20_351_128)))
 (let (($x663152 (= (_ bv10 8) ?x656194)))
 (let ((?x391716 (ite $x663152 (_ bv1 1) (_ bv0 1))))
 (let ((?x664775 ((_ extract 103 96) mem_20_351_128)))
 (let (($x398851 (= (_ bv10 8) ?x664775)))
 (let ((?x397443 (ite $x398851 (_ bv1 1) (_ bv0 1))))
 (let ((?x662909 ((_ extract 111 104) mem_20_351_128)))
 (let (($x391275 (= (_ bv10 8) ?x662909)))
 (let ((?x394422 (ite $x391275 (_ bv1 1) (_ bv0 1))))
 (let ((?x664289 ((_ extract 119 112) mem_20_351_128)))
 (let (($x664720 (= (_ bv10 8) ?x664289)))
 (let ((?x200006 (ite $x664720 (_ bv1 1) (_ bv0 1))))
 (let ((?x663912 ((_ extract 127 120) mem_20_351_128)))
 (let (($x659780 (= (_ bv10 8) ?x663912)))
 (let ((?x387257 (ite $x659780 (_ bv1 1) (_ bv0 1))))
 (let ((?x659905 (concat (concat (concat (concat (concat ?x387257 ?x200006) ?x394422) ?x397443) ?x391716) ?x392673)))
 (let ((?x659775 (concat (concat (concat (concat (concat ?x659905 ?x389297) ?x395808) ?x395530) ?x379251) ?x195446)))
 (let ((?x649932 (concat (concat (concat (concat (concat ?x659775 ?x387134) ?x397079) ?x393086) ?x396326) ?x380476)))
 (and (distinct (_ bv0 16) ?x649932) true)))))))))))))))))))))))))))))))))))))))))))))))))))))
(assert
 (let ((?x663856 ((_ extract 7 0) mem_20_351_128)))
 (let (($x387683 (= (_ bv10 8) ?x663856)))
 (let ((?x380476 (ite $x387683 (_ bv1 1) (_ bv0 1))))
 (let ((?x664026 ((_ extract 15 8) mem_20_351_128)))
 (let (($x663463 (= (_ bv10 8) ?x664026)))
 (let ((?x396326 (ite $x663463 (_ bv1 1) (_ bv0 1))))
 (let ((?x664023 ((_ extract 23 16) mem_20_351_128)))
 (let (($x663808 (= (_ bv10 8) ?x664023)))
 (let ((?x393086 (ite $x663808 (_ bv1 1) (_ bv0 1))))
 (let ((?x662982 ((_ extract 31 24) mem_20_351_128)))
 (let (($x663487 (= (_ bv10 8) ?x662982)))
 (let ((?x397079 (ite $x663487 (_ bv1 1) (_ bv0 1))))
 (let ((?x663512 ((_ extract 39 32) mem_20_351_128)))
 (let (($x663515 (= (_ bv10 8) ?x663512)))
 (let ((?x387134 (ite $x663515 (_ bv1 1) (_ bv0 1))))
 (let ((?x659653 ((_ extract 47 40) mem_20_351_128)))
 (let (($x663510 (= (_ bv10 8) ?x659653)))
 (let ((?x195446 (ite $x663510 (_ bv1 1) (_ bv0 1))))
 (let ((?x664634 ((_ extract 55 48) mem_20_351_128)))
 (let (($x662902 (= (_ bv10 8) ?x664634)))
 (let ((?x379251 (ite $x662902 (_ bv1 1) (_ bv0 1))))
 (let ((?x663511 ((_ extract 63 56) mem_20_351_128)))
 (let (($x663806 (= (_ bv10 8) ?x663511)))
 (let ((?x395530 (ite $x663806 (_ bv1 1) (_ bv0 1))))
 (let ((?x651001 ((_ extract 71 64) mem_20_351_128)))
 (let (($x389000 (= (_ bv10 8) ?x651001)))
 (let ((?x395808 (ite $x389000 (_ bv1 1) (_ bv0 1))))
 (let ((?x649517 ((_ extract 79 72) mem_20_351_128)))
 (let (($x663854 (= (_ bv10 8) ?x649517)))
 (let ((?x389297 (ite $x663854 (_ bv1 1) (_ bv0 1))))
 (let ((?x659809 ((_ extract 87 80) mem_20_351_128)))
 (let (($x386649 (= (_ bv10 8) ?x659809)))
 (let ((?x392673 (ite $x386649 (_ bv1 1) (_ bv0 1))))
 (let ((?x656194 ((_ extract 95 88) mem_20_351_128)))
 (let (($x663152 (= (_ bv10 8) ?x656194)))
 (let ((?x391716 (ite $x663152 (_ bv1 1) (_ bv0 1))))
 (let ((?x664775 ((_ extract 103 96) mem_20_351_128)))
 (let (($x398851 (= (_ bv10 8) ?x664775)))
 (let ((?x397443 (ite $x398851 (_ bv1 1) (_ bv0 1))))
 (let ((?x662909 ((_ extract 111 104) mem_20_351_128)))
 (let (($x391275 (= (_ bv10 8) ?x662909)))
 (let ((?x394422 (ite $x391275 (_ bv1 1) (_ bv0 1))))
 (let ((?x664289 ((_ extract 119 112) mem_20_351_128)))
 (let (($x664720 (= (_ bv10 8) ?x664289)))
 (let ((?x200006 (ite $x664720 (_ bv1 1) (_ bv0 1))))
 (let ((?x1166890 (concat (concat (_ bv0 16) (ite (= (_ bv10 8) ((_ extract 127 120) mem_20_351_128)) (_ bv1 1) (_ bv0 1))) ?x200006)))
 (let ((?x1155788 (concat (concat (concat (concat (concat ?x1166890 ?x394422) ?x397443) ?x391716) ?x392673) ?x389297)))
 (let ((?x1169656 (concat (concat (concat (concat (concat ?x1155788 ?x395808) ?x395530) ?x379251) ?x195446) ?x387134)))
 (let ((?x1172222 (concat (concat (concat (concat ?x1169656 ?x397079) ?x393086) ?x396326) ?x380476)))
 (let ((?x1172198 ((_ zero_extend 32) ?x1172222)))
 (let ((?x663912 ((_ extract 127 120) mem_20_351_128)))
 (let (($x659780 (= (_ bv10 8) ?x663912)))
 (let ((?x1170950 (ite $x659780 (_ bv15 64) (_ bv64 64))))
 (let ((?x1168034 (ite $x664720 (_ bv14 64) ?x1170950)))
 (let ((?x1167247 (ite $x391275 (_ bv13 64) ?x1168034)))
 (let ((?x1167677 (ite $x398851 (_ bv12 64) ?x1167247)))
 (let ((?x1168961 (ite $x663152 (_ bv11 64) ?x1167677)))
 (let ((?x1171041 (ite $x386649 (_ bv10 64) ?x1168961)))
 (let ((?x1163438 (ite $x663854 (_ bv9 64) ?x1171041)))
 (let ((?x1167925 (ite $x389000 (_ bv8 64) ?x1163438)))
 (let ((?x1169578 (ite $x663806 (_ bv7 64) ?x1167925)))
 (let ((?x1163206 (ite $x662902 (_ bv6 64) ?x1169578)))
 (let ((?x1163435 (ite $x663510 (_ bv5 64) ?x1163206)))
 (let ((?x1171473 (ite $x663515 (_ bv4 64) ?x1163435)))
 (let ((?x1171477 (ite $x663487 (_ bv3 64) ?x1171473)))
 (let ((?x1173309 (ite $x663808 (_ bv2 64) ?x1171477)))
 (let ((?x1162541 (ite $x663463 (_ bv1 64) ?x1173309)))
 (let ((?x1173953 (ite $x387683 (_ bv0 64) ?x1162541)))
 (let (($x1172216 (and (distinct (_ bv0 32) ?x1172222) true)))
 (let ((?x1169420 (ite $x1172216 ?x1173953 ?x1172198)))
 (let ((?x1170322 ((_ extract 31 0) ?x1169420)))
 (let ((?x1171435 ((_ zero_extend 32) ?x1170322)))
 (let ((?x6423 ((_ extract 835 832) mem_c0000f45_79_992)))
 (let ((?x16888 (concat (_ bv268435455 28) ?x6423)))
 (let ((?x2374 ((_ extract 839 832) mem_c0000f45_79_992)))
 (let ((?x2364 ((_ extract 831 824) mem_c0000f45_79_992)))
 (let ((?x3769 (concat (concat ((_ extract 815 808) mem_c0000f45_79_992) ((_ extract 823 816) mem_c0000f45_79_992)) ?x2364)))
 (let ((?x3590 (concat ?x3769 ?x2374)))
 (let ((?x21976 (bvmul (_ bv4294967295 32) ?x3590)))
 (let ((?x2427 ((_ extract 775 768) mem_c0000f45_79_992)))
 (let ((?x2419 ((_ extract 767 760) mem_c0000f45_79_992)))
 (let ((?x21977 (concat (concat ((_ extract 751 744) mem_c0000f45_79_992) ((_ extract 759 752) mem_c0000f45_79_992)) ?x2419)))
 (let ((?x22501 (concat ?x21977 ?x2427)))
 (let ((?x22517 (bvadd ?x22501 ?x21976)))
 (let ((?x3615 ((_ extract 824 824) mem_c0000f45_79_992)))
 (let ((?x3589 (concat ?x3615 ?x2374)))
 (let ((?x4638 (bvmul (_ bv511 9) ?x3589)))
 (let ((?x4203 ((_ extract 760 760) mem_c0000f45_79_992)))
 (let ((?x3607 (concat ?x4203 ?x2427)))
 (let ((?x3785 (bvadd ?x3607 ?x4638)))
 (let (($x4511 (bvule ?x3785 (_ bv399 9))))
 (let ((?x2349 ((_ extract 823 816) mem_c0000f45_79_992)))
 (let ((?x2357 ((_ extract 815 808) mem_c0000f45_79_992)))
 (let ((?x2362 ((_ extract 807 800) mem_c0000f45_79_992)))
 (let ((?x2363 ((_ extract 799 792) mem_c0000f45_79_992)))
 (let ((?x593 (concat (concat ((_ extract 783 776) mem_c0000f45_79_992) ((_ extract 791 784) mem_c0000f45_79_992)) ?x2363)))
 (let ((?x4215 (concat (concat (concat (concat ?x593 ?x2362) ?x2357) ?x2349) ?x2364)))
 (let ((?x3812 (concat ?x4215 ?x2374)))
 (let ((?x3646 (bvmul (_ bv18446744073709551615 64) ?x3812)))
 (let ((?x2429 ((_ extract 759 752) mem_c0000f45_79_992)))
 (let ((?x2417 ((_ extract 751 744) mem_c0000f45_79_992)))
 (let ((?x2410 ((_ extract 743 736) mem_c0000f45_79_992)))
 (let ((?x2411 ((_ extract 735 728) mem_c0000f45_79_992)))
 (let ((?x4124 (concat (concat ((_ extract 719 712) mem_c0000f45_79_992) ((_ extract 727 720) mem_c0000f45_79_992)) ?x2411)))
 (let ((?x4642 (concat ?x4124 ?x2410)))
 (let ((?x3823 (concat (concat (concat (concat ?x4642 ?x2417) ?x2429) ?x2419) ?x2427)))
 (let ((?x3827 (bvadd ?x3823 ?x3646)))
 (let ((?x4614 ((_ extract 63 9) ?x3827)))
 (let (($x4610 (= (_ bv0 55) ?x4614)))
 (let (($x4615 (and $x4610 $x4511)))
 (let ((?x22206 (ite $x4615 ?x22517 (_ bv399 32))))
 (let ((?x14378 (bvadd (_ bv4294967264 32) ?x22206)))
 (let ((?x12985 (bvadd ?x14378 ?x16888)))
 (let ((?x42099 (concat (_ bv0 32) ?x12985)))
 (bvule ?x42099 ?x1171435))))))))))))))))))))))))))))))))))))))))))))))))))))))))))))))))))))))))))))))))))))))))))))))))))))))))))))))))))))
(maximize mem_20_351_128)
(maximize syscall_stub_newfstatat_83_64)
(maximize mem_c0080020_87_32)
(minimize syscall_stub_newfstatat_83_64)
(minimize mem_c0080020_87_32)
(minimize mem_c0000f45_79_992)
(minimize mem_10_297_128)
(minimize mem_20_351_128)
(minimize mem_fffffffffffffff0_163_128)
(maximize mem_c0000f45_79_992)
(minimize mem_c0080024_86_32)
(minimize mem_0_253_128)
(maximize mem_c0080024_86_32)
(maximize mem_c0080018_88_32)
(maximize mem_c0080008_85_32)
(maximize mem_c0080010_84_32)
(maximize mem_10_297_128)
(maximize mem_c0001010_98_32)
(minimize mem_c0080014_89_32)
(minimize mem_c0001010_98_32)
(minimize mem_c0080018_88_32)
(check-sat)
(get-objectives)
